N = 5;
lengths = [295, 150, 40, 1300, 670];
widths = [295, 80, 40, 700, 60];
heights = [75, 60, 10, 50, 60];
reds = [197, 132, 155, 111, 71];
greens = [215, 248, 244, 71, 48];
blues = [20, 207, 183, 144, 128];
